nServices=10;
nDrivers=10;
nBuses=10;
startingTime=[79 60 105 93 125 29 174 140 73 196];
durationTime=[11 26 10 20 17 16 15 26 18 26];
durationDist=[20 57 60 28 22 21 54 41 45 53];
passangers=[21 12 15 24 14 21 11 13 5 20];
capacity=[11 25 18 21 16 17 19 14 24 28];
costTime=[7 10 9 8 8 9 9 10 6 9];
costDist=[3 2 6 4 6 3 4 3 4 3];
maxTime=[39 36 35 20 59 46 28 47 29 41];
costBM=[8 5 8 5 6 5 5 5 8 8];
costEM=[10 11 10 12 8 9 10 12 12 9];
BM=[12 15 14 17 13 18 13 14 15 20];
